\ Model CSLP_copy
\ LP format - for model browsing. Use MPS format to capture full model detail.
Maximize
 
Subject To
 at_least_five_stations: build_variable[0] + build_variable[1] >= 5
Bounds
Binaries
 build_variable[0] build_variable[1]
End
